(declare-datatypes (a)
  ((list (nil) (cons (head a) (tail (list a))))))
(declare-datatypes () ((Nat (Z) (S (p Nat)))))
(define-fun-rec
  zelem
    ((x Int) (y (list Int))) Bool
    (match y
      (case nil false)
      (case (cons z ys) (or (= x z) (zelem x ys)))))
(define-fun-rec
  zunique
    ((x (list Int))) Bool
    (match x
      (case nil true)
      (case (cons y xs) (and (not (zelem y xs)) (zunique xs)))))
(define-fun-rec
  (par (t)
    (singletons
       ((x (list t))) (list (list t))
       (match x
         (case nil (as nil (list (list t))))
         (case (cons y xs)
           (cons (cons y (as nil (list t))) (singletons xs)))))))
(define-fun-rec
  lmerge
    ((x (list Int)) (y (list Int))) (list Int)
    (match x
      (case nil y)
      (case (cons z x2)
        (match y
          (case nil x)
          (case (cons x3 x4)
            (ite (<= z x3) (cons z (lmerge x2 y)) (cons x3 (lmerge x x4))))))))
(define-fun-rec
  pairwise
    ((x (list (list Int)))) (list (list Int))
    (match x
      (case nil (as nil (list (list Int))))
      (case (cons xs y)
        (match y
          (case nil (cons xs (as nil (list (list Int)))))
          (case (cons ys xss) (cons (lmerge xs ys) (pairwise xss)))))))
(define-fun-rec
  mergingbu
    ((x (list (list Int)))) (list Int)
    (match x
      (case nil (as nil (list Int)))
      (case (cons xs y)
        (match y
          (case nil xs)
          (case (cons z x2) (mergingbu (pairwise x)))))))
(define-fun
  msortbu ((x (list Int))) (list Int) (mergingbu (singletons x)))
(define-fun-rec
  (par (a)
    (length
       ((x (list a))) Nat
       (match x
         (case nil Z)
         (case (cons y xs) (S (length xs)))))))
(assert-not
  (forall ((xs (list Int)) (ys (list Int)))
    (or (distinct (msortbu xs) (msortbu ys))
      (or (= xs ys)
        (or (not (zunique xs))
          (or (distinct (length xs) (S (S (S (S (S Z))))))
            (distinct (length ys) (S (S (S (S (S Z))))))))))))
(check-sat)
